NAME : R112.6302.tour
COMMENT : Cost = 0_6302
COMMENT : Found by LKH [Keld Helsgaun] Wed Sep 13 18:34:14 2017
TYPE : TOUR
DIMENSION : 56
TOUR_SECTION
1
41
3
16
44
43
14
54
13
30
25
35
36
10
34
4
51
56
7
6
18
17
45
39
15
38
55
28
32
8
20
12
11
31
33
21
2
53
29
22
23
42
24
40
26
5
27
52
19
9
46
47
37
50
48
49
-1
EOF
